Route #1: 5 45 2 24 47
Route #2: 19 26 27 29 7 59 14
Route #3: 33 58 48 36 1 28
Route #4: 13 8 57 37 17 15
Route #5: 35 56 43 12 51 9 32
Route #6: 41 34 39 50 55 52 38
Route #7: 18 23 54 42 10 22
Route #8: 16 25 40 11 3 20
Route #9: 46 4 21 53 30 49 44 31 6
cost 1550.84619140625